#.\compute_packing.py
# GMT Sun Nov 17 01:08:22 2024
# 
29777
212925
109141
350824
74344
134851
590036
236920
112888
154577
201735
517400
315859
20681
81995
164465
234957
63574
223037
72458
181474
177878
405479
246165
14251
167736
578386
74072
347464
129564
206762
97187
21824
488979
355921
43688
470453
179873
160426
337725
645056
68208
156835
564598
238797
230602
116590
138891
5930
20728
125258
343518
8016
326699
73956
388067
48369
237154
469990
183590
2181
12830
163221
602184
206924
187400
60288
377979
4693
471323
88351
553028
76543
210073
2374
240387
227174
194058
107394
519716
507937
110835
2488
63890
324352
126081
8782
196476
138972
419060
103917
88864
92204
234737
999
94591
170420
444678
202544
586900
